
Gurobi 6.0.3 (win64) logging started 08/15/15 18:31:19


Gurobi Optimizer version 6.0.3 build v6.0.3rc0 (win64)
Copyright (c) 2015, Gurobi Optimization, Inc.

Error reading LP format file C:/Users/PB/git/An_et_al/An_et_al/ModelAndResults/model.lp at line 5852
Unrecognized constraint RHS
Neighboring tokens: " = y1 + x0_0_2_2 + x0_1_2_2 + x0_2_2_2 + "


ERROR 10012: Unable to read file


Gurobi 6.0.3 (win64) logging started 08/15/15 18:31:42


Gurobi Optimizer version 6.0.3 build v6.0.3rc0 (win64)
Copyright (c) 2015, Gurobi Optimization, Inc.

Error reading LP format file D:/model.lp at line 2
LP format file must begin with a keyword
Neighboring tokens: " + 0.0 x0_1_0_1 + 0.0 x0_1_2_1 + 0.0 "


ERROR 10012: Unable to read file


Gurobi 6.0.3 (win64) logging started 08/15/15 18:35:44


Gurobi Optimizer version 6.0.3 build v6.0.3rc0 (win64)
Copyright (c) 2015, Gurobi Optimization, Inc.

Error reading LP format file D:/model.lp at line 2
LP format file must begin with a keyword
Neighboring tokens: " + 0.0 x0_1_0_1 + 0.0 x0_1_2_1 + 0.0 "


ERROR 10012: Unable to read file


Gurobi 6.0.3 (win64) logging started 08/15/15 18:37:01


Gurobi Optimizer version 6.0.3 build v6.0.3rc0 (win64)
Copyright (c) 2015, Gurobi Optimization, Inc.

Error reading LP format file D:/model.lp at line 2
LP format file must begin with a keyword
Neighboring tokens: " + 0.0 x0_1_0_1 + 0.0 x0_1_2_1 + 0.0 "


ERROR 10012: Unable to read file


Gurobi 6.0.3 (win64) logging started 08/15/15 18:39:25


Gurobi Optimizer version 6.0.3 build v6.0.3rc0 (win64)
Copyright (c) 2015, Gurobi Optimization, Inc.

Error reading LP format file D:/model.lp at line 2
LP format file must begin with a keyword
Neighboring tokens: " + 0.0 x0_1_0_1 + 0.0 x0_1_2_1 + 0.0 "


ERROR 10012: Unable to read file


Gurobi 6.0.3 (win64) logging started 08/15/15 18:40:19


Gurobi Optimizer version 6.0.3 build v6.0.3rc0 (win64)
Copyright (c) 2015, Gurobi Optimization, Inc.

Error reading LP format file D:/model.lp at line 2
LP format file must begin with a keyword
Neighboring tokens: " + 0.0 x0_1_0_1 + 0.0 x0_1_2_1 + 0.0 "


ERROR 10012: Unable to read file


Gurobi 6.0.3 (win64) logging started 08/15/15 18:40:36


Gurobi Optimizer version 6.0.3 build v6.0.3rc0 (win64)
Copyright (c) 2015, Gurobi Optimization, Inc.

Error reading LP format file D:/model.lp at line 2
LP format file must begin with a keyword
Neighboring tokens: " + 0.0 x0_1_0_1 + 0.0 x0_1_2_1 + 0.0 "


ERROR 10012: Unable to read file


Gurobi 6.0.3 (win64) logging started 08/15/15 18:41:06


Gurobi Optimizer version 6.0.3 build v6.0.3rc0 (win64)
Copyright (c) 2015, Gurobi Optimization, Inc.

Error reading LP format file D:/model.lp at line 5853
Unrecognized constraint RHS
Neighboring tokens: " = y1 + x0_0_2_2 + x0_1_2_2 + x0_2_2_2 + "


ERROR 10012: Unable to read file


Gurobi 6.0.3 (win64) logging started 08/15/15 18:44:15


Gurobi Optimizer version 6.0.3 build v6.0.3rc0 (win64)
Copyright (c) 2015, Gurobi Optimization, Inc.

Error reading LP format file D:/model.lp at line 5853
Unrecognized constraint RHS
Neighboring tokens: " = y1 + x0_0_2_2 + x0_1_2_2 + x0_2_2_2 + "


ERROR 10012: Unable to read file


Gurobi 6.0.3 (win64) logging started 08/15/15 18:48:19


Gurobi Optimizer version 6.0.3 build v6.0.3rc0 (win64)
Copyright (c) 2015, Gurobi Optimization, Inc.

Error reading LP format file D:/model.lp at line 5853
Unrecognized constraint RHS
Neighboring tokens: " = y1 + x0_0_2_2 + x0_1_2_2 + x0_2_2_2 + "


ERROR 10012: Unable to read file


Gurobi 6.0.3 (win64) logging started 08/15/15 18:54:05


Gurobi Optimizer version 6.0.3 build v6.0.3rc0 (win64)
Copyright (c) 2015, Gurobi Optimization, Inc.

Error reading LP format file D:/model.lp at line 5853
Unrecognized constraint RHS
Neighboring tokens: " = y1 + x0_0_2_2 + x0_1_2_2 + x0_2_2_2 + "


ERROR 10012: Unable to read file


Gurobi 6.0.3 (win64) logging started 08/15/15 18:54:42


Gurobi Optimizer version 6.0.3 build v6.0.3rc0 (win64)
Copyright (c) 2015, Gurobi Optimization, Inc.

Error reading LP format file D:/model.lp at line 5989
Unrecognized constraint RHS
Neighboring tokens: " <= y0 + U0_1_1 + x0_1_0_1 + x0_1_1_1 + "


ERROR 10012: Unable to read file


Gurobi 6.0.3 (win64) logging started 08/15/15 18:55:25


Gurobi Optimizer version 6.0.3 build v6.0.3rc0 (win64)
Copyright (c) 2015, Gurobi Optimization, Inc.

Error reading LP format file D:/model.lp at line 5989
Unrecognized constraint RHS
Neighboring tokens: " <=0 + U0_1_1 + x0_1_0_1 + x0_1_1_1 + x0_1_2_1 "


ERROR 10012: Unable to read file


Gurobi 6.0.3 (win64) logging started 08/15/15 18:55:42


Gurobi Optimizer version 6.0.3 build v6.0.3rc0 (win64)
Copyright (c) 2015, Gurobi Optimization, Inc.

WARNING: Numeric variable name in LP file ('0.0x0_0_0_1') - often the result
         of a constant term in the left-hand side of a constraint.

Read LP format model from file D:/model.lp
Reading time = 0.21 seconds
(null): 3826 rows, 10721 columns, 77410 nonzeros
Optimize a model with 3826 rows, 10721 columns and 77410 nonzeros
Coefficient statistics:
  Matrix range    [1e+00, 3e+02]
  Objective range [1e+00, 5e+03]
  Bounds range    [1e+00, 1e+00]
  RHS range       [1e+00, 3e+02]
Presolve removed 1764 rows and 5086 columns
Presolve time: 0.35s
Presolved: 2062 rows, 5635 columns, 57466 nonzeros
Variable types: 1080 continuous, 4555 integer (4555 binary)

Root relaxation: objective 1.306972e+04, 474 iterations, 0.04 seconds

    Nodes    |    Current Node    |     Objective Bounds      |     Work
 Expl Unexpl |  Obj  Depth IntInf | Incumbent    BestBd   Gap | It/Node Time

     0     0 13069.7243    0  242          - 13069.7243      -     -    0s
H    0     0                    46332.280092 13069.7243  71.8%     -    0s
     0     0 13391.4751    0  206 46332.2801 13391.4751  71.1%     -    0s
H    0     0                    20225.286619 13391.4751  33.8%     -    1s
     0     0 13697.2308    0  266 20225.2866 13697.2308  32.3%     -    1s
     0     0 13768.0605    0  293 20225.2866 13768.0605  31.9%     -    1s
     0     0 13891.2473    0  314 20225.2866 13891.2473  31.3%     -    1s
     0     0 13928.0891    0  335 20225.2866 13928.0891  31.1%     -    1s
H    0     0                    20158.849974 13928.0891  30.9%     -    1s
     0     0 13953.7993    0  351 20158.8500 13953.7993  30.8%     -    1s
     0     0 13986.9007    0  340 20158.8500 13986.9007  30.6%     -    1s
H    0     0                    20142.118938 13986.9007  30.6%     -    1s
     0     0 13991.2016    0  335 20142.1189 13991.2016  30.5%     -    2s
H    0     0                    20071.749849 13991.2016  30.3%     -    2s
     0     0 14008.7344    0  398 20071.7498 14008.7344  30.2%     -    2s
H    0     0                    20038.531526 14008.7344  30.1%     -    2s
     0     0 14010.7535    0  403 20038.5315 14010.7535  30.1%     -    2s
     0     0 14010.7535    0  344 20038.5315 14010.7535  30.1%     -    2s
H    0     0                    19790.048453 14010.7535  29.2%     -    2s
H    0     0                    19750.396622 14010.7535  29.1%     -    2s
     0     2 14010.7535    0  344 19750.3966 14010.7535  29.1%     -    3s
*   43    22              24    15329.654244 14409.4952  6.00%  55.7    3s
*   45    22              24    15312.321914 14409.4952  5.90%  53.3    3s
H   47    16                    14859.064225 14409.4952  3.03%  54.6    3s
H   48    16                    14819.144381 14409.4952  2.76%  54.0    3s
H  107    38                    14747.294247 14463.8798  1.92%  32.1    3s

Cutting planes:
  Gomory: 14
  Clique: 13
  MIR: 145
  Zero half: 55

Explored 665 nodes (11280 simplex iterations) in 4.74 seconds
Thread count was 4 (of 4 available processors)

Optimal solution found (tolerance 1.00e-04)
Best objective 1.474729424685e+04, best bound 1.474729424685e+04, gap 0.0%

Wrote result file 'D:/Results.sol'


Gurobi 6.0.3 (win64) logging started 08/16/15 16:16:10


Gurobi Optimizer version 6.0.3 build v6.0.3rc0 (win64)
Copyright (c) 2015, Gurobi Optimization, Inc.

WARNING: Numeric variable name in LP file ('0.0x0_0_0_1') - often the result
         of a constant term in the left-hand side of a constraint.

Read LP format model from file D:/model.lp
Reading time = 0.18 seconds
(null): 3826 rows, 10721 columns, 77410 nonzeros
Optimize a model with 3826 rows, 10721 columns and 77410 nonzeros
Coefficient statistics:
  Matrix range    [1e+00, 3e+02]
  Objective range [1e+00, 5e+03]
  Bounds range    [1e+00, 1e+00]
  RHS range       [1e+00, 3e+02]
Presolve removed 1764 rows and 5086 columns
Presolve time: 0.43s
Presolved: 2062 rows, 5635 columns, 57466 nonzeros
Variable types: 1080 continuous, 4555 integer (4555 binary)

Root relaxation: objective 1.306972e+04, 474 iterations, 0.03 seconds

    Nodes    |    Current Node    |     Objective Bounds      |     Work
 Expl Unexpl |  Obj  Depth IntInf | Incumbent    BestBd   Gap | It/Node Time

     0     0 13069.7243    0  242          - 13069.7243      -     -    0s
H    0     0                    46332.280092 13069.7243  71.8%     -    0s
     0     0 13391.4751    0  206 46332.2801 13391.4751  71.1%     -    1s
H    0     0                    20225.286619 13391.4751  33.8%     -    1s
     0     0 13697.2308    0  266 20225.2866 13697.2308  32.3%     -    1s
     0     0 13768.0605    0  293 20225.2866 13768.0605  31.9%     -    1s
     0     0 13891.2473    0  314 20225.2866 13891.2473  31.3%     -    1s
     0     0 13928.0891    0  335 20225.2866 13928.0891  31.1%     -    1s
H    0     0                    20158.849974 13928.0891  30.9%     -    1s
     0     0 13953.7993    0  351 20158.8500 13953.7993  30.8%     -    2s
     0     0 13986.9007    0  340 20158.8500 13986.9007  30.6%     -    2s
H    0     0                    20142.118938 13986.9007  30.6%     -    2s
     0     0 13991.2016    0  335 20142.1189 13991.2016  30.5%     -    2s
H    0     0                    20071.749849 13991.2016  30.3%     -    2s
     0     0 14008.7344    0  398 20071.7498 14008.7344  30.2%     -    2s
H    0     0                    20038.531526 14008.7344  30.1%     -    2s
     0     0 14010.7535    0  403 20038.5315 14010.7535  30.1%     -    2s
     0     0 14010.7535    0  344 20038.5315 14010.7535  30.1%     -    3s
H    0     0                    19790.048453 14010.7535  29.2%     -    3s
H    0     0                    19750.396622 14010.7535  29.1%     -    3s
     0     2 14010.7535    0  344 19750.3966 14010.7535  29.1%     -    3s
*   43    22              24    15329.654244 14409.4952  6.00%  55.7    4s
*   45    22              24    15312.321914 14409.4952  5.90%  53.3    4s
H   47    16                    14859.064225 14409.4952  3.03%  54.6    4s
H   48    16                    14819.144381 14409.4952  2.76%  54.0    4s
H  107    38                    14747.294247 14463.8798  1.92%  32.1    4s
   381    74 14693.3047   11   14 14747.2942 14566.7418  1.22%  15.2    5s

Cutting planes:
  Gomory: 14
  Clique: 13
  MIR: 145
  Zero half: 55

Explored 665 nodes (11280 simplex iterations) in 5.55 seconds
Thread count was 4 (of 4 available processors)

Optimal solution found (tolerance 1.00e-04)
Best objective 1.474729424685e+04, best bound 1.474729424685e+04, gap 0.0%

Wrote result file 'D:/Results.sol'


Gurobi 6.0.3 (win64) logging started 08/16/15 16:23:03


Gurobi Optimizer version 6.0.3 build v6.0.3rc0 (win64)
Copyright (c) 2015, Gurobi Optimization, Inc.

WARNING: Numeric variable name in LP file ('0.0') - often the result
         of a constant term in the left-hand side of a constraint.

Read LP format model from file D:/model.lp
Reading time = 0.18 seconds
(null): 3826 rows, 8111 columns, 75610 nonzeros
Optimize a model with 3826 rows, 8111 columns and 75610 nonzeros
Coefficient statistics:
  Matrix range    [1e+00, 3e+02]
  Objective range [1e+00, 5e+03]
  Bounds range    [1e+00, 1e+00]
  RHS range       [1e+00, 3e+02]
Presolve removed 1251 rows and 1935 columns
Presolve time: 0.36s
Presolved: 2575 rows, 6176 columns, 61462 nonzeros
Variable types: 1621 continuous, 4555 integer (4555 binary)

Root relaxation: objective 1.306972e+04, 493 iterations, 0.04 seconds

    Nodes    |    Current Node    |     Objective Bounds      |     Work
 Expl Unexpl |  Obj  Depth IntInf | Incumbent    BestBd   Gap | It/Node Time

     0     0 13069.7243    0  244          - 13069.7243      -     -    0s
     0     0 13397.2405    0  212          - 13397.2405      -     -    0s
     0     0 13563.8444    0  243          - 13563.8444      -     -    1s
H    0     0                    18479.686661 13563.8444  26.6%     -    1s
H    0     0                    18405.309316 13563.8444  26.3%     -    1s
     0     0 13687.7532    0  334 18405.3093 13687.7532  25.6%     -    1s
     0     0 13746.3845    0  349 18405.3093 13746.3845  25.3%     -    1s
     0     0 13816.3708    0  341 18405.3093 13816.3708  24.9%     -    1s
     0     0 13822.3528    0  370 18405.3093 13822.3528  24.9%     -    1s
     0     0 13873.2379    0  438 18405.3093 13873.2379  24.6%     -    2s
H    0     0                    18396.913096 13873.2379  24.6%     -    2s
     0     0 13885.9871    0  427 18396.9131 13885.9871  24.5%     -    2s
     0     0 13887.6122    0  364 18396.9131 13887.6122  24.5%     -    2s
     0     0 13906.9488    0  411 18396.9131 13906.9488  24.4%     -    2s
     0     0 13910.4844    0  427 18396.9131 13910.4844  24.4%     -    2s
     0     0 13910.4844    0  356 18396.9131 13910.4844  24.4%     -    3s
H    0     0                    15451.222282 13910.4844  10.0%     -    3s
     0     2 13910.4844    0  332 15451.2223 13910.4844  10.0%     -    3s
H   31    32                    15371.191393 14047.0716  8.61%  79.0    4s
H   81    72                    15272.707460 14047.0716  8.03%  49.2    4s
H  157   143                    15228.933767 14047.0716  7.76%  28.6    4s
   169   146 14423.6679   14  320 15228.9338 14047.0716  7.76%  27.3    5s
H  415   311                    15193.632313 14199.8455  6.54%  19.8    5s
  1070   693 14839.1913   23  356 15193.6323 14512.3114  4.48%  13.5   14s
  1072   694 14846.8176   12  380 15193.6323 14512.3114  4.48%  13.5   15s
  1076   697 15019.0393   32  452 15193.6323 14512.3114  4.48%  13.5   20s
  1079   699 14876.7681   10  466 15193.6323 14512.3114  4.48%  13.4   25s
  1088   705 14872.0778   14  353 15193.6323 14520.4949  4.43%  22.4   30s
  2471   933 15044.1275   30  256 15193.6323 14805.3734  2.56%  17.0   35s
  5086  1746 15114.8900   20   26 15193.6323 14996.2056  1.30%  12.6   42s
  6858  2158 15114.3865   22  237 15193.6323 15028.9700  1.08%  10.8   45s
 10446  2945 15132.6914   24   16 15193.6323 15058.6372  0.89%   8.5   56s
 13604  3526 15185.7907   27   16 15193.6323 15076.7127  0.77%   7.5   60s
 17721  4037 15095.4949   33   19 15193.6323 15093.5074  0.66%   6.6   65s
 21577  4022 15186.4898   30   10 15193.6323 15108.7364  0.56%   6.2   70s
 25702  3690     cutoff   24      15193.6323 15124.4860  0.46%   5.9   75s
 29621  2978     cutoff   34      15193.6323 15139.5696  0.36%   5.6   80s
 33241  1744 15162.6441   34    4 15193.6323 15159.4542  0.22%   5.4   85s
 36858    87 15189.7512   35   15 15193.6323 15189.7512  0.03%   5.2   90s

Cutting planes:
  Gomory: 16
  Implied bound: 1
  Clique: 13
  MIR: 307
  Flow cover: 151
  GUB cover: 2
  Zero half: 105

Explored 37155 nodes (196811 simplex iterations) in 90.38 seconds
Thread count was 4 (of 4 available processors)

Optimal solution found (tolerance 1.00e-04)
Best objective 1.519363231256e+04, best bound 1.519359915910e+04, gap 0.0002%

Wrote result file 'D:/Results.sol'


Gurobi 6.0.3 (win64) logging started 08/16/15 17:45:32


Gurobi Optimizer version 6.0.3 build v6.0.3rc0 (win64)
Copyright (c) 2015, Gurobi Optimization, Inc.

Read LP format model from file D:/model.lp
Reading time = 0.19 seconds
(null): 3826 rows, 8110 columns, 75160 nonzeros
Optimize a model with 3826 rows, 8110 columns and 75160 nonzeros
Coefficient statistics:
  Matrix range    [1e+00, 3e+02]
  Objective range [1e+00, 5e+03]
  Bounds range    [1e+00, 1e+00]
  RHS range       [1e+00, 3e+02]
Presolve removed 1251 rows and 1935 columns
Presolve time: 0.41s
Presolved: 2575 rows, 6175 columns, 61192 nonzeros
Variable types: 1620 continuous, 4555 integer (4555 binary)

Root relaxation: objective 1.200962e+04, 505 iterations, 0.04 seconds

    Nodes    |    Current Node    |     Objective Bounds      |     Work
 Expl Unexpl |  Obj  Depth IntInf | Incumbent    BestBd   Gap | It/Node Time

     0     0 12009.6184    0  301          - 12009.6184      -     -    0s
H    0     0                    22238.931361 12009.6184  46.0%     -    0s
H    0     0                    18150.239506 12009.6184  33.8%     -    0s
     0     0 12062.8320    0  312 18150.2395 12062.8320  33.5%     -    1s
H    0     0                    18076.473159 12062.8320  33.3%     -    1s
     0     0 12528.7198    0  333 18076.4732 12528.7198  30.7%     -    1s
H    0     0                    17928.830286 12528.7198  30.1%     -    1s
     0     0 12821.0217    0  392 17928.8303 12821.0217  28.5%     -    1s
     0     0 12967.6284    0  438 17928.8303 12967.6284  27.7%     -    1s
     0     0 13058.0009    0  361 17928.8303 13058.0009  27.2%     -    2s
     0     0 13246.2297    0  444 17928.8303 13246.2297  26.1%     -    2s
H    0     0                    14261.201106 13246.2297  7.12%     -    2s
     0     0 13262.5416    0  479 14261.2011 13262.5416  7.00%     -    2s
H    0     0                    14131.131035 13262.5416  6.15%     -    2s
     0     0 13266.8792    0  499 14131.1310 13266.8792  6.12%     -    2s
H    0     0                    14129.685131 13266.8792  6.11%     -    2s
     0     0 13273.7162    0  413 14129.6851 13273.7162  6.06%     -    3s
     0     0 13280.5546    0  427 14129.6851 13280.5546  6.01%     -    3s
     0     0 13281.3253    0  409 14129.6851 13281.3253  6.00%     -    3s
     0     0 13281.6811    0  422 14129.6851 13281.6811  6.00%     -    4s
     0     0 13281.6811    0  422 14129.6851 13281.6811  6.00%     -    4s
H    0     0                    14054.551056 13281.6811  5.50%     -    4s
     0     0 13281.6811    0  309 14054.5511 13281.6811  5.50%     -    4s
     0     0 13281.6811    0  454 14054.5511 13281.6811  5.50%     -    5s
     0     0 13296.3092    0  437 14054.5511 13296.3092  5.39%     -    5s
     0     0 13320.9446    0  440 14054.5511 13320.9446  5.22%     -    5s
     0     0 13342.8884    0  441 14054.5511 13342.8884  5.06%     -    5s
     0     0 13359.9240    0  447 14054.5511 13359.9240  4.94%     -    5s
     0     0 13364.7377    0  459 14054.5511 13364.7377  4.91%     -    6s
     0     0 13366.8393    0  420 14054.5511 13366.8393  4.89%     -    6s
     0     0 13367.1266    0  413 14054.5511 13367.1266  4.89%     -    6s
     0     0 13370.4114    0  422 14054.5511 13370.4114  4.87%     -    7s
     0     0 13370.4114    0  422 14054.5511 13370.4114  4.87%     -    7s
     0     2 13370.4114    0  422 14054.5511 13370.4114  4.87%     -    7s
H   68    39                    14053.411408 13398.8157  4.66%  78.1    8s
H   72    40                    14050.436935 13398.8157  4.64%  75.0    8s
H  145    83                    14037.537940 13409.1085  4.48%  48.1    8s
H  321   122                    14002.236486 13690.8071  2.22%  35.1    8s
   969   221     cutoff   10      14002.2365 13891.8532  0.79%  18.4   10s

Cutting planes:
  Gomory: 18
  Implied bound: 41
  Clique: 13
  MIR: 173
  Zero half: 73

Explored 1770 nodes (32653 simplex iterations) in 11.00 seconds
Thread count was 4 (of 4 available processors)

Optimal solution found (tolerance 1.00e-04)
Best objective 1.400223648587e+04, best bound 1.400223648587e+04, gap 0.0%

Wrote result file 'D:/Results.sol'

